Problem:    mars
Rows:       161
Columns:    151
Non-zeros:  396
Status:     OPTIMAL
Objective:  obiettivo = 0.6338636364 (MINimum)

   No.   Row name   St   Activity     Lower bound   Upper bound    Marginal
------ ------------ -- ------------- ------------- ------------- -------------
     1 vincoloTrasmissione[2,1]
                    NS             0            -0             =   0.000227273 
     2 vincoloTrasmissione[2,2]
                    NS             0            -0             =   0.000227273 
     3 vincoloTrasmissione[2,3]
                    NS             0            -0             =   0.000227273 
     4 vincoloTrasmissione[2,4]
                    NS             0            -0             =   0.000227273 
     5 vincoloTrasmissione[2,5]
                    NS             0            -0             =   0.000227273 
     6 vincoloTrasmissione[3,1]
                    NS             0            -0             =   0.000227273 
     7 vincoloTrasmissione[3,2]
                    NS             0            -0             =   0.000227273 
     8 vincoloTrasmissione[3,3]
                    NS             0            -0             =   0.000227273 
     9 vincoloTrasmissione[3,4]
                    NS             0            -0             =   0.000227273 
    10 vincoloTrasmissione[3,5]
                    NS             0            -0             =   0.000227273 
    11 vincoloTrasmissione[4,1]
                    NS             0            -0             =   0.000227273 
    12 vincoloTrasmissione[4,2]
                    NS             0            -0             =   0.000227273 
    13 vincoloTrasmissione[4,3]
                    NS             0            -0             =   0.000227273 
    14 vincoloTrasmissione[4,4]
                    NS             0            -0             =   0.000227273 
    15 vincoloTrasmissione[4,5]
                    NS             0            -0             =   0.000227273 
    16 vincoloTrasmissione[5,1]
                    NS             0            -0             =   0.000227273 
    17 vincoloTrasmissione[5,2]
                    NS             0            -0             =   0.000227273 
    18 vincoloTrasmissione[5,3]
                    NS             0            -0             =   0.000227273 
    19 vincoloTrasmissione[5,4]
                    NS             0            -0             =   0.000227273 
    20 vincoloTrasmissione[5,5]
                    NS             0            -0             =   0.000227273 
    21 vincoloTrasmissione[6,1]
                    NS             0            -0             =   0.000227273 
    22 vincoloTrasmissione[6,2]
                    NS             0            -0             =   0.000227273 
    23 vincoloTrasmissione[6,3]
                    NS             0            -0             =   0.000227273 
    24 vincoloTrasmissione[6,4]
                    NS             0            -0             =   0.000227273 
    25 vincoloTrasmissione[6,5]
                    NS             0            -0             =   0.000227273 
    26 vincoloTrasmissione[7,1]
                    NS             0            -0             =   0.000227273 
    27 vincoloTrasmissione[7,2]
                    NS             0            -0             =   0.000227273 
    28 vincoloTrasmissione[7,3]
                    NS             0            -0             =   0.000227273 
    29 vincoloTrasmissione[7,4]
                    NS             0            -0             =   0.000227273 
    30 vincoloTrasmissione[7,5]
                    NS             0            -0             =   0.000227273 
    31 vincoloTrasmissione[8,1]
                    NS             0            -0             =   0.000227273 
    32 vincoloTrasmissione[8,2]
                    NS             0            -0             =   0.000227273 
    33 vincoloTrasmissione[8,3]
                    NS             0            -0             =   0.000227273 
    34 vincoloTrasmissione[8,4]
                    NS             0            -0             =   0.000227273 
    35 vincoloTrasmissione[8,5]
                    NS             0            -0             =         < eps
    36 vincoloTrasmissione[9,1]
                    NS             0            -0             =         < eps
    37 vincoloTrasmissione[9,2]
                    NS             0            -0             =         < eps
    38 vincoloTrasmissione[9,3]
                    NS             0            -0             =         < eps
    39 vincoloTrasmissione[9,4]
                    NS             0            -0             =         < eps
    40 vincoloTrasmissione[9,5]
                    NS             0            -0             =         < eps
    41 vincoloTrasmissione[10,1]
                    NS             0            -0             =         < eps
    42 vincoloTrasmissione[10,2]
                    NS             0            -0             =         < eps
    43 vincoloTrasmissione[10,3]
                    NS             0            -0             =         < eps
    44 vincoloTrasmissione[10,4]
                    NS             0            -0             =         < eps
    45 vincoloTrasmissione[10,5]
                    NS             0            -0             =         < eps
    46 vincoloTrasmissioneIniziale[1]
                    NS           500           500             =   0.000227273 
    47 vincoloTrasmissioneIniziale[2]
                    NS           600           600             =   0.000227273 
    48 vincoloTrasmissioneIniziale[3]
                    NS           500           500             =   0.000227273 
    49 vincoloTrasmissioneIniziale[4]
                    NS           250           250             =   0.000227273 
    50 vincoloTrasmissioneIniziale[5]
                    NS           350           350             =   0.000227273 
    51 vincoloConservazione[1,1]
                    NS            35            35             =   0.000227273 
    52 vincoloConservazione[1,2]
                    NS             0            -0             =   0.000227273 
    53 vincoloConservazione[1,3]
                    NS            80            80             =   0.000227273 
    54 vincoloConservazione[1,4]
                    NS            25            25             =   0.000227273 
    55 vincoloConservazione[1,5]
                    NS            50            50             =   0.000227273 
    56 vincoloConservazione[2,1]
                    NS           200           200             =   0.000227273 
    57 vincoloConservazione[2,2]
                    NS            70            70             =   0.000227273 
    58 vincoloConservazione[2,3]
                    NS           100           100             =   0.000227273 
    59 vincoloConservazione[2,4]
                    NS            25            25             =   0.000227273 
    60 vincoloConservazione[2,5]
                    NS             0            -0             =   0.000227273 
    61 vincoloConservazione[3,1]
                    NS             0            -0             =   0.000227273 
    62 vincoloConservazione[3,2]
                    NS           150           150             =   0.000227273 
    63 vincoloConservazione[3,3]
                    NS             0            -0             =   0.000227273 
    64 vincoloConservazione[3,4]
                    NS            25            25             =   0.000227273 
    65 vincoloConservazione[3,5]
                    NS           100           100             =   0.000227273 
    66 vincoloConservazione[4,1]
                    NS           600           600             =   0.000227273 
    67 vincoloConservazione[4,2]
                    NS           300           300             =   0.000227273 
    68 vincoloConservazione[4,3]
                    NS             0            -0             =   0.000227273 
    69 vincoloConservazione[4,4]
                    NS            25            25             =   0.000227273 
    70 vincoloConservazione[4,5]
                    NS            75            75             =   0.000227273 
    71 vincoloConservazione[5,1]
                    NS           200           200             =   0.000227273 
    72 vincoloConservazione[5,2]
                    NS             0            -0             =   0.000227273 
    73 vincoloConservazione[5,3]
                    NS           210           210             =   0.000227273 
    74 vincoloConservazione[5,4]
                    NS            25            25             =   0.000227273 
    75 vincoloConservazione[5,5]
                    NS           200           200             =   0.000227273 
    76 vincoloConservazione[6,1]
                    NS            50            50             =   0.000227273 
    77 vincoloConservazione[6,2]
                    NS             0            -0             =   0.000227273 
    78 vincoloConservazione[6,3]
                    NS            85            85             =   0.000227273 
    79 vincoloConservazione[6,4]
                    NS             0            -0             =   0.000227273 
    80 vincoloConservazione[6,5]
                    NS            45            45             =   0.000227273 
    81 vincoloConservazione[7,1]
                    NS            40            40             =   0.000227273 
    82 vincoloConservazione[7,2]
                    NS            60            60             =   0.000227273 
    83 vincoloConservazione[7,3]
                    NS            50            50             =   0.000227273 
    84 vincoloConservazione[7,4]
                    NS             0            -0             =   0.000227273 
    85 vincoloConservazione[7,5]
                    NS           300           300             =   0.000227273 
    86 vincoloConservazione[8,1]
                    NS           300           300             =   0.000227273 
    87 vincoloConservazione[8,2]
                    NS            90            90             =   0.000227273 
    88 vincoloConservazione[8,3]
                    NS            20            20             =   0.000227273 
    89 vincoloConservazione[8,4]
                    NS            60            60             =   0.000227273 
    90 vincoloConservazione[8,5]
                    NS             0            -0             =         < eps
    91 vincoloConservazione[9,1]
                    NS             0            -0             =         < eps
    92 vincoloConservazione[9,2]
                    NS           100           100             =         < eps
    93 vincoloConservazione[9,3]
                    NS           100           100             =         < eps
    94 vincoloConservazione[9,4]
                    NS            60            60             =         < eps
    95 vincoloConservazione[9,5]
                    NS            20            20             =         < eps
    96 vincoloConservazione[10,1]
                    NS             0            -0             =         < eps
    97 vincoloConservazione[10,2]
                    NS            20            20             =         < eps
    98 vincoloConservazione[10,3]
                    NS           100           100             =         < eps
    99 vincoloConservazione[10,4]
                    NS            60            60             =         < eps
   100 vincoloConservazione[10,5]
                    NS           250           250             =         < eps
   101 vincoloVelocita[1]
                    NU           405                         405  -0.000227273 
   102 vincoloVelocita[2]
                    NU           423                         423  -0.000227273 
   103 vincoloVelocita[3]
                    NU           495                         495  -0.000227273 
   104 vincoloVelocita[4]
                    NU           405                         405  -0.000227273 
   105 vincoloVelocita[5]
                    NU           315                         315  -0.000227273 
   106 vincoloVelocita[6]
                    NU           378                         378  -0.000227273 
   107 vincoloVelocita[7]
                    NU           270                         270  -0.000227273 
   108 vincoloVelocita[8]
                    NU           315                         315  -0.000227273 
   109 vincoloVelocita[9]
                    NU           396                         396         < eps
   110 vincoloVelocita[10]
                    NU           360                         360         < eps
   111 obiettivo    B       0.633864                             
   112 maxz[1,1]    B      0.0988636            -0               
   113 maxz[1,2]    B       0.133864            -0               
   114 maxz[1,3]    B      0.0538636            -0               
   115 maxz[1,4]    B           0.32            -0               
   116 maxz[1,5]    B       0.472338            -0               
   117 maxz[2,1]    NL             0            -0                       < eps
   118 maxz[2,2]    B       0.131913            -0               
   119 maxz[2,3]    B          0.095            -0               
   120 maxz[2,4]    B           0.27            -0               
   121 maxz[2,5]    B       0.633864            -0               
   122 maxz[3,1]    B       0.203295            -0               
   123 maxz[3,2]    B           0.25            -0               
   124 maxz[3,3]    B          0.095            -0               
   125 maxz[3,4]    B           0.22            -0               
   126 maxz[3,5]    B       0.491006            -0               
   127 maxz[4,1]    NL             0            -0                       < eps
   128 maxz[4,2]    NL             0            -0                       < eps
   129 maxz[4,3]    B          0.095            -0               
   130 maxz[4,4]    B           0.17            -0               
   131 maxz[4,5]    B       0.395714            -0               
   132 maxz[5,1]    NL             0            -0                       < eps
   133 maxz[5,2]    B              0            -0               
   134 maxz[5,3]    NL             0            -0                       < eps
   135 maxz[5,4]    B           0.12            -0               
   136 maxz[5,5]    B           0.11            -0               
   137 maxz[6,1]    NL             0            -0                       < eps
   138 maxz[6,2]    B              0            -0               
   139 maxz[6,3]    NL             0            -0                       < eps
   140 maxz[6,4]    B           0.12            -0               
   141 maxz[6,5]    B       0.392857            -0               
   142 maxz[7,1]    B          0.095            -0               
   143 maxz[7,2]    NL             0            -0                       < eps
   144 maxz[7,3]    NL             0            -0                       < eps
   145 maxz[7,4]    B           0.12            -0               
   146 maxz[7,5]    NL             0            -0                    0.159091 
   147 maxz[8,1]    NL             0            -0                    0.227273 
   148 maxz[8,2]    NL             0            -0                    0.272727 
   149 maxz[8,3]    NL             0            -0                    0.227273 
   150 maxz[8,4]    NL             0            -0                    0.113636 
   151 maxz[8,5]    B              0            -0               
   152 maxz[9,1]    B              0            -0               
   153 maxz[9,2]    NL             0            -0                       < eps
   154 maxz[9,3]    B           0.01            -0               
   155 maxz[9,4]    B          0.212            -0               
   156 maxz[9,5]    NL             0            -0                       < eps
   157 maxz[10,1]   B              0            -0               
   158 maxz[10,2]   NL             0            -0                       < eps
   159 maxz[10,3]   NL             0            -0                       < eps
   160 maxz[10,4]   B          0.092            -0               
   161 maxz[10,5]   NL             0            -0                       < eps

   No. Column name  St   Activity     Lower bound   Upper bound    Marginal
------ ------------ -- ------------- ------------- ------------- -------------
     1 x[2,1]       B        101.136             0               
     2 x[2,2]       B        67.6591             0               
     3 x[2,3]       B        141.136             0               
     4 x[2,4]       NL             0             0                       < eps
     5 x[2,5]       B        113.068             0               
     6 x[3,1]       B        203.295             0               
     7 x[3,2]       B        291.705             0               
     8 x[3,3]       NL             0             0                       < eps
     9 x[3,4]       NL             0             0                       < eps
    10 x[3,5]       B              0             0               
    11 x[4,1]       B        396.705             0               
    12 x[4,2]       NL             0             0                       < eps
    13 x[4,3]       NL             0             0                       < eps
    14 x[4,4]       NL             0             0                       < eps
    15 x[4,5]       B        8.29545             0               
    16 x[5,1]       B            200             0               
    17 x[5,2]       NL             0             0                       < eps
    18 x[5,3]       B            115             0               
    19 x[5,4]       NL             0             0                       < eps
    20 x[5,5]       NL             0             0                       < eps
    21 x[6,1]       B             50             0               
    22 x[6,2]       NL             0             0                       < eps
    23 x[6,3]       B             85             0               
    24 x[6,4]       NL             0             0                       < eps
    25 x[6,5]       B            243             0               
    26 x[7,1]       B            135             0               
    27 x[7,2]       B             60             0               
    28 x[7,3]       B             50             0               
    29 x[7,4]       NL             0             0                       < eps
    30 x[7,5]       B             25             0               
    31 x[8,1]       B            205             0               
    32 x[8,2]       B             90             0               
    33 x[8,3]       B             20             0               
    34 x[8,4]       NL             0             0                       < eps
    35 x[8,5]       NL             0             0                 0.000227273 
    36 x[9,1]       NL             0             0                       < eps
    37 x[9,2]       B            100             0               
    38 x[9,3]       B            110             0               
    39 x[9,4]       B            166             0               
    40 x[9,5]       B             20             0               
    41 x[10,1]      NL             0             0                       < eps
    42 x[10,2]      B             20             0               
    43 x[10,3]      B             90             0               
    44 x[10,4]      NL             0             0                       < eps
    45 x[10,5]      B            250             0               
    46 x[1,1]       NL             0             0                       < eps
    47 x[1,2]       NL             0             0                       < eps
    48 x[1,3]       NL             0             0                       < eps
    49 x[1,4]       B        118.068             0               
    50 x[1,5]       B        286.932             0               
    51 y[1,1]       B            535             0          1000 
    52 y[1,2]       B            600             0          1200 
    53 y[1,3]       B            580             0          1000 
    54 y[1,4]       B        156.932             0           500 
    55 y[1,5]       B        113.068             0           700 
    56 y[2,1]       B        633.864             0          1000 
    57 y[2,2]       B        602.341             0          1200 
    58 y[2,3]       B        538.864             0          1000 
    59 y[2,4]       B        181.932             0           500 
    60 y[2,5]       B              0             0           700 
    61 y[3,1]       B        430.568             0          1000 
    62 y[3,2]       B        460.636             0          1200 
    63 y[3,3]       B        538.864             0          1000 
    64 y[3,4]       B        206.932             0           500 
    65 y[3,5]       B            100             0           700 
    66 y[4,1]       B        633.864             0          1000 
    67 y[4,2]       B        760.636             0          1200 
    68 y[4,3]       B        538.864             0          1000 
    69 y[4,4]       B        231.932             0           500 
    70 y[4,5]       B        166.705             0           700 
    71 y[5,1]       B        633.864             0          1000 
    72 y[5,2]       B        760.636             0          1200 
    73 y[5,3]       B        633.864             0          1000 
    74 y[5,4]       B        256.932             0           500 
    75 y[5,5]       B        366.705             0           700 
    76 y[6,1]       B        633.864             0          1000 
    77 y[6,2]       B        760.636             0          1200 
    78 y[6,3]       B        633.864             0          1000 
    79 y[6,4]       B        256.932             0           500 
    80 y[6,5]       B        168.705             0           700 
    81 y[7,1]       B        538.864             0          1000 
    82 y[7,2]       B        760.636             0          1200 
    83 y[7,3]       B        633.864             0          1000 
    84 y[7,4]       B        256.932             0           500 
    85 y[7,5]       B        443.705             0           700 
    86 y[8,1]       B        633.864             0          1000 
    87 y[8,2]       B        760.636             0          1200 
    88 y[8,3]       B        633.864             0          1000 
    89 y[8,4]       B        316.932             0           500 
    90 y[8,5]       B        443.705             0           700 
    91 y[9,1]       B        633.864             0          1000 
    92 y[9,2]       B        760.636             0          1200 
    93 y[9,3]       B        623.864             0          1000 
    94 y[9,4]       B        210.932             0           500 
    95 y[9,5]       B        443.705             0           700 
    96 y[10,1]      B        633.864             0          1000 
    97 y[10,2]      B        760.636             0          1200 
    98 y[10,3]      B        633.864             0          1000 
    99 y[10,4]      B        270.932             0           500 
   100 y[10,5]      B        443.705             0           700 
   101 z[2,1]       B        433.864             0               
   102 z[2,2]       B        532.341             0               
   103 z[2,3]       B        438.864             0               
   104 z[2,4]       B        156.932             0               
   105 z[2,5]       NL             0             0                       < eps
   106 z[3,1]       B        430.568             0               
   107 z[3,2]       B        310.636             0               
   108 z[3,3]       B        538.864             0               
   109 z[3,4]       B        181.932             0               
   110 z[3,5]       NL             0             0                       < eps
   111 z[4,1]       B        33.8636             0               
   112 z[4,2]       B        460.636             0               
   113 z[4,3]       B        538.864             0               
   114 z[4,4]       B        206.932             0               
   115 z[4,5]       B        91.7045             0               
   116 z[5,1]       B        433.864             0               
   117 z[5,2]       B        760.636             0               
   118 z[5,3]       B        423.864             0               
   119 z[5,4]       B        231.932             0               
   120 z[5,5]       B        166.705             0               
   121 z[6,1]       B        583.864             0               
   122 z[6,2]       B        760.636             0               
   123 z[6,3]       B        548.864             0               
   124 z[6,4]       B        256.932             0               
   125 z[6,5]       B        123.705             0               
   126 z[7,1]       B        498.864             0               
   127 z[7,2]       B        700.636             0               
   128 z[7,3]       B        583.864             0               
   129 z[7,4]       B        256.932             0               
   130 z[7,5]       B        143.705             0               
   131 z[8,1]       B        333.864             0               
   132 z[8,2]       B        670.636             0               
   133 z[8,3]       B        613.864             0               
   134 z[8,4]       B        256.932             0               
   135 z[8,5]       B        443.705             0               
   136 z[9,1]       B        633.864             0               
   137 z[9,2]       B        660.636             0               
   138 z[9,3]       B        523.864             0               
   139 z[9,4]       B        150.932             0               
   140 z[9,5]       B        423.705             0               
   141 z[10,1]      B        633.864             0               
   142 z[10,2]      B        740.636             0               
   143 z[10,3]      B        533.864             0               
   144 z[10,4]      B        210.932             0               
   145 z[10,5]      B        193.705             0               
   146 z[1,1]       B            500             0               
   147 z[1,2]       B            600             0               
   148 z[1,3]       B            500             0               
   149 z[1,4]       B        131.932             0               
   150 z[1,5]       B        63.0682             0               
   151 w            B       0.633864                             

Karush-Kuhn-Tucker optimality conditions:

KKT.PE: max.abs.err = 2.66e-12 on row 15
        max.rel.err = 1.71e-12 on row 10
        High quality

KKT.PB: max.abs.err = 4.58e-15 on column 60
        max.rel.err = 4.58e-15 on column 60
        High quality

KKT.DE: max.abs.err = 2.22e-16 on column 151
        max.rel.err = 7.40e-17 on column 151
        High quality

KKT.DB: max.abs.err = 1.35e-15 on row 153
        max.rel.err = 1.35e-15 on row 153
        High quality

End of output
